
mapping with 16 threads...

 0:00:00.75 Mapping INCOV034-BL.extracted.fq.gz to NUC reference...

 0:06:17.06 Generating binary hit matrix.
0:06:17.10 Loading /labs/khatrilab/solomonb/covid/isb/optitype/INCOV034-BL_1.bam started. Number of HLA reads loaded (updated every thousand):
1K...2K...3K...4K...5K...6K...7K...8K...9K...10K...11K...12K...13K...14K...15K...16K...17K...18K...19K...20K...21K...22K...23K...24K...25K...26K...27K...28K...29K...30K...31K...32K...33K...34K...35K...36K...37K...38K...39K...40K...41K...42K...43K...44K...45K...46K...47K...48K...49K...50K...51K...52K...53K...54K...55K...56K...57K...58K...59K...60K...61K...62K...63K...64K...65K...66K...67K...68K...69K...70K...71K...72K...73K...74K...75K...76K...77K...78K...79K...80K...81K...82K...83K...84K...85K...86K...87K...88K...89K...90K...91K...92K...93K...94K...95K...96K...97K...98K...99K...100K...101K...102K...103K...104K...105K...106K...107K...108K...109K...110K...111K...112K...113K...114K...115K...116K...117K...118K...119K...120K...
 0:07:08.87 120577 reads loaded. Creating dataframe...
0:20:37.44 Dataframes created. Shape: 120577 x 7339, hits: 42893930 (42960268), sparsity: 1 in 20.60

 0:21:31.37 temporary pruning of identical rows and columns

 0:21:34.16 Size of mtx with unique rows and columns: (2452, 1555)
0:21:34.16 determining minimal set of non-overshadowed alleles

 0:21:57.42 Keeping only the minimal number of required alleles (685,)

 0:21:57.92 Creating compact model...

starting ilp solver with 1 threads...

 0:23:15.23 Initializing OptiType model...
GLPSOL: GLPK LP/MIP Solver, v4.57
Parameter(s) specified in the command line:
 --write /tmp/tmprX2mEe.glpk.raw --wglp /tmp/tmp0bO2wr.glpk.glp --cpxlp /tmp/tmpRPngFF.pyomo.lp
Reading problem data from '/tmp/tmpRPngFF.pyomo.lp'...
/tmp/tmpRPngFF.pyomo.lp:115086: warning: lower bound of variable 'x7057' redefined
/tmp/tmpRPngFF.pyomo.lp:115086: warning: upper bound of variable 'x7057' redefined
7056 rows, 4209 columns, 86179 non-zeros
2446 integer variables, all of which are binary
117532 lines were read
Writing problem data to '/tmp/tmp0bO2wr.glpk.glp'...
109788 lines were written
GLPK Integer Optimizer, v4.57
7056 rows, 4209 columns, 86179 non-zeros
2446 integer variables, all of which are binary
Preprocessing...
1562 hidden covering inequaliti(es) were detected
7049 rows, 4206 columns, 86168 non-zeros
2444 integer variables, all of which are binary
Scaling...
 A: min|aij| =  1.000e+00  max|aij| =  5.000e+00  ratio =  5.000e+00
Problem data seem to be well scaled
Constructing initial basis...
Size of triangular part is 7049
Solving LP relaxation...
GLPK Simplex Optimizer, v4.57
7049 rows, 4206 columns, 86168 non-zeros
      0: obj =  -0.000000000e+00 inf =   3.000e+00 (3)
      3: obj =  -0.000000000e+00 inf =   0.000e+00 (0)
*   500: obj =   9.208256250e+04 inf =   0.000e+00 (1618) 1
*  1000: obj =   1.047061630e+05 inf =   7.661e-15 (1342)
*  1500: obj =   1.054215160e+05 inf =   9.770e-15 (1089) 1
*  2000: obj =   1.055599160e+05 inf =   9.770e-15 (945)
*  2500: obj =   1.059062520e+05 inf =   2.653e-14 (694)
*  3000: obj =   1.062420300e+05 inf =   8.016e-14 (195)
*  3195: obj =   1.063537650e+05 inf =   0.000e+00 (0)
OPTIMAL LP SOLUTION FOUND
Integer optimization begins...
+  3195: mip =     not found yet <=              +inf        (1; 0)
+  3195: >>>>>   1.063537650e+05 <=   1.063537650e+05   0.0% (1; 0)
+  3195: mip =   1.063537650e+05 <=     tree is empty   0.0% (0; 1)
INTEGER OPTIMAL SOLUTION FOUND
Time used:   0.9 secs
Memory used: 18.1 Mb (19001068 bytes)
Writing MIP solution to '/tmp/tmprX2mEe.glpk.raw'...
11267 lines were written

 0:23:26.58 Result dataframe has been constructed...
